NAME : random_17
COMMENT : 40 random nodes
TYPE : TSP
DIMENSION : 40
EDGE_WEIGHT_TYPE : EUC_2D
NODE_COORD_SECTION
1 828 801
2 190 924
3 966 445
4 964 238
5 23 648
6 169 745
7 37 771
8 479 532
9 145 877
10 195 334
11 190 779
12 666 976
13 952 613
14 260 31
15 868 738
16 289 325
17 698 991
18 669 47
19 905 837
20 583 111
21 739 245
22 822 173
23 380 26
24 805 864
25 269 568
26 290 903
27 681 200
28 236 610
29 393 810
30 551 745
31 647 6
32 161 734
33 688 463
34 110 783
35 215 924
36 330 316
37 415 706
38 974 917
39 506 759
40 953 148
EOF